8
-1 11 84 44 43 66 78 72 
78 -1 40 94 66 91 80 77 
4 85 -1 23 68 -1 17 56 
94 17 58 -1 12 16 92 94 
-1 73 69 64 -1 -1 81 43 
7 11 45 100 72 -1 63 89 
69 61 35 39 83 32 -1 76 
68 10 2 80 -1 100 -1 -1 
